DATASET = "thpack6";
INSTANCE = "071";

WIDTH = 233;
HEIGHT = 220;
LENGTH = 587;

NO_OF_SHAPES = 15;
size = [|
  99,64,62 |
  110,43,37 |
  96,73,50 |
  114,53,35 |
  105,27,22 |
  75,66,51 |
  72,61,48 |
  102,46,32 |
  59,57,45 |
  111,45,33 |
  90,74,58 |
  55,51,34 |
  98,73,21 |
  85,61,35 |
  41,35,31 |
|];

verticality = [|
  1,1,1 |
  0,1,1 |
  1,1,1 |
  0,1,1 |
  0,1,1 |
  1,1,1 |
  1,1,1 |
  0,1,1 |
  1,1,1 |
  0,1,1 |
  1,1,1 |
  1,1,1 |
  0,0,1 |
  0,1,1 |
  1,1,1 |
|];

box_count = [
  15,
  10,
  12,
  5,
  5,
  8,
  6,
  13,
  5,
  12,
  14,
  5,
  9,
  6,
  12,
];
